Gurobi Optimizer version 9.1.2 build v9.1.2rc0 (linux64)
Thread count: 36 physical cores, 72 logical processors, using up to 32 threads
Optimize a model with 12 rows, 57 columns and 590 nonzeros
Model fingerprint: 0xf32eec78
Model has 47 quadratic constraints
Coefficient statistics:
  Matrix range     [2e-05, 3e+00]
  QMatrix range    [1e+00, 1e+00]
  QLMatrix range   [1e+00, 1e+00]
  Objective range  [8e-03, 7e-01]
  Bounds range     [1e+00, 1e+00]
  RHS range        [1e+00, 1e+00]
Presolve removed 9 rows and 0 columns

Continuous model is non-convex -- solving as a MIP.

Presolve removed 9 rows and 0 columns
Presolve time: 0.00s
Presolved: 189 rows, 57 columns, 443 nonzeros
Presolved model has 47 bilinear constraint(s)
Variable types: 57 continuous, 0 integer (0 binary)

Root relaxation: objective -1.743721e+00, 44 iterations, 0.00 seconds

    Nodes    |    Current Node    |     Objective Bounds      |     Work
 Expl Unexpl |  Obj  Depth IntInf | Incumbent    BestBd   Gap | It/Node Time

     0     0   -1.74372    0   38          -   -1.74372      -     -    0s
H    0     0                       0.6147548   -1.74372   384%     -    0s
     0     0   -1.64739    0    1    0.61475   -1.64739   368%     -    0s
H    0     0                      -1.6450460   -1.64739  0.14%     -    0s
     0     0     cutoff    0        -1.64505   -1.64505  0.00%     -    0s

Cutting planes:
  RLT: 25
  BQP: 3

Explored 1 nodes (76 simplex iterations) in 0.01 seconds
Thread count was 32 (of 72 available processors)

Solution count 2: -1.64505 0.614755 
No other solutions better than -1.64505

Optimal solution found (tolerance 1.00e-04)
Best objective -1.645045978473e+00, best bound -1.645045978473e+00, gap 0.0000%

User-callback calls 78, time in user-callback 0.00 sec
Gurobi Optimizer version 9.1.2 build v9.1.2rc0 (linux64)
Thread count: 36 physical cores, 72 logical processors, using up to 32 threads
Optimize a model with 60 rows, 312 columns and 16100 nonzeros
Model fingerprint: 0x84b5a452
Model has 262 quadratic constraints
Coefficient statistics:
  Matrix range     [4e-07, 7e+00]
  QMatrix range    [1e+00, 1e+00]
  QLMatrix range   [1e+00, 1e+00]
  Objective range  [3e-03, 1e+00]
  Bounds range     [1e+00, 1e+00]
  RHS range        [1e+00, 1e+00]
Presolve removed 15 rows and 0 columns

Continuous model is non-convex -- solving as a MIP.

Presolve removed 15 rows and 0 columns
Presolve time: 0.01s
Presolved: 1081 rows, 312 columns, 13448 nonzeros
Presolved model has 262 bilinear constraint(s)
Variable types: 312 continuous, 0 integer (0 binary)

Root relaxation: objective -2.126466e+01, 330 iterations, 0.02 seconds

    Nodes    |    Current Node    |     Objective Bounds      |     Work
 Expl Unexpl |  Obj  Depth IntInf | Incumbent    BestBd   Gap | It/Node Time

     0     0  -21.26466    0  156          -  -21.26466      -     -    0s
     0     0  -20.00873    0   78          -  -20.00873      -     -    0s
     0     0  -19.97181    0   71          -  -19.97181      -     -    0s
     0     0  -19.92744    0  115          -  -19.92744      -     -    0s
     0     0  -19.92143    0   86          -  -19.92143      -     -    0s
     0     0  -19.90628    0  115          -  -19.90628      -     -    0s
     0     0  -19.90553    0   83          -  -19.90553      -     -    0s
     0     0  -19.90389    0   78          -  -19.90389      -     -    0s
     0     0  -19.90335    0   78          -  -19.90335      -     -    0s
     0     0  -19.90020    0   78          -  -19.90020      -     -    0s
     0     0  -19.89993    0   78          -  -19.89993      -     -    0s
     0     0  -19.89935    0   78          -  -19.89935      -     -    0s
     0     0  -19.89900    0   78          -  -19.89900      -     -    0s
     0     0  -19.89871    0   78          -  -19.89871      -     -    0s
     0     0  -19.89857    0   78          -  -19.89857      -     -    0s
     0     0  -19.89856    0   78          -  -19.89856      -     -    0s
     0     2  -19.89856    0   78          -  -19.89856      -     -    0s
* 2481  1981              59     -18.2899213  -19.06864  4.26%  45.3    1s
* 2482  1981              59     -18.2899218  -19.06864  4.26%  45.2    1s
* 2490  1981              70     -18.7433918  -19.06864  1.74%  45.1    1s
* 2491  1981              70     -18.7433919  -19.06864  1.74%  45.1    1s
* 3229  1708              62     -18.7477243  -19.02169  1.46%  44.2    2s
* 5697  1795              57     -18.7483005  -18.90218  0.82%  42.3    3s
* 5698  1795              57     -18.7483042  -18.90218  0.82%  42.3    3s
* 5792  1803              53     -18.7486321  -18.89811  0.80%  42.0    3s
* 5796  1803              55     -18.7486882  -18.89811  0.80%  42.0    3s
* 6074  1826              54     -18.7486917  -18.89811  0.80%  41.3    3s
* 6270  1826              47     -18.7510764  -18.89811  0.78%  40.8    3s
* 6272  1826              48     -18.7510791  -18.89811  0.78%  40.8    3s
* 6273  1826              48     -18.7510944  -18.89811  0.78%  40.8    3s
* 6279  1826              49     -18.7511024  -18.89811  0.78%  40.8    3s
* 6280  1826              49     -18.7511156  -18.89811  0.78%  40.7    3s
* 6282  1826              49     -18.7511191  -18.89811  0.78%  40.7    3s
* 6283  1826              49     -18.7511350  -18.89811  0.78%  40.7    3s
* 6489  1799              51     -18.7513347  -18.89811  0.78%  40.2    3s
* 6569  1799              61     -18.7599949  -18.89811  0.74%  40.0    3s
* 6573  1799              63     -18.7599956  -18.89811  0.74%  40.0    3s
* 7914  1742              54     -18.7600890  -18.84164  0.43%  37.9    4s
* 8195  1785              56     -18.7601741  -18.83042  0.37%  37.5    4s
* 8559  1755              55     -18.7602771  -18.81812  0.31%  36.8    4s
* 8560  1755              55     -18.7602805  -18.81812  0.31%  36.8    4s
 10081  1780  -18.76282   18   23  -18.76028  -18.79872  0.20%  34.9    5s
*10506  1780              53     -18.7602951  -18.79836  0.20%  34.3    5s
*10507  1780              53     -18.7603030  -18.79836  0.20%  34.3    5s
*10815  1742              57     -18.7603037  -18.79366  0.18%  33.9    5s
*11938  1788              49     -18.7603651  -18.79131  0.16%  32.6    5s
*11939  1788              49     -18.7603699  -18.79131  0.16%  32.6    5s
*11945  1788              50     -18.7603701  -18.79131  0.16%  32.6    5s
*12638  1752              46     -18.7604827  -18.78710  0.14%  31.7    5s
*13049  1796              50     -18.7604829  -18.78710  0.14%  31.3    5s
*13074  1796              52     -18.7606848  -18.78710  0.14%  31.3    5s
*13076  1796              53     -18.7606966  -18.78710  0.14%  31.3    5s
*13077  1796              53     -18.7606966  -18.78710  0.14%  31.3    5s
*13081  1796              54     -18.7607047  -18.78710  0.14%  31.3    5s
*13757  1756              51     -18.7607157  -18.78515  0.13%  30.5    5s
*13759  1756              52     -18.7607265  -18.78515  0.13%  30.5    5s
*13825  1756              57     -18.7608495  -18.78515  0.13%  30.4    5s
*14386  1798              44     -18.7609777  -18.78320  0.12%  29.9    5s
*21098   899              57     -18.7614122  -18.78121  0.11%  33.6    7s
*21099   899              56     -18.7614801  -18.78121  0.11%  33.6    7s
*21103   899              57     -18.7614846  -18.78121  0.11%  33.6    7s
*21104   899              56     -18.7615614  -18.78121  0.10%  33.6    7s
*21408   939              57     -18.7616207  -18.78121  0.10%  33.5    8s
 31798  1398     cutoff   32       -18.76162  -18.78121  0.10%  31.3   10s
*35386  1701              62     -18.7616212  -18.78121  0.10%  30.2   10s
*36061  1699              65     -18.7616230  -18.77913  0.09%  30.0   10s
*36064  1699              65     -18.7616240  -18.77913  0.09%  30.0   10s
*37889  1689              65     -18.7616248  -18.77559  0.07%  29.4   10s
*37892  1689              65     -18.7616248  -18.77559  0.07%  29.4   10s
*38194  1799              69     -18.7616440  -18.77524  0.07%  29.2   11s
*41726  1853              64     -18.7617546  -18.77123  0.05%  28.0   11s
*43576  1882              61     -18.7617714  -18.76970  0.04%  27.3   11s
*47839  2097              58     -18.7617913  -18.76761  0.03%  26.0   12s
*47840  2076              58     -18.7618284  -18.76761  0.03%  26.0   12s
*47861  2076              58     -18.7618292  -18.76761  0.03%  26.0   12s
*49833  2112              62     -18.7618688  -18.76697  0.03%  25.4   12s
*49838  2105              63     -18.7618748  -18.76697  0.03%  25.4   12s
*49839  2105              63     -18.7618771  -18.76697  0.03%  25.4   12s
*50133  2095              62     -18.7618903  -18.76687  0.03%  25.3   12s
*50138  2094              63     -18.7618921  -18.76687  0.03%  25.3   12s
*57127  2094              68     -18.7619108  -18.76503  0.02%  23.5   13s
 65436  2098     cutoff   43       -18.76191  -18.76385  0.01%  21.8   15s
*66319  2067              69     -18.7619224  -18.76365  0.01%  21.6   15s
*66563  2021              70     -18.7619422  -18.76364  0.01%  21.6   15s
*66564  2021              70     -18.7619423  -18.76364  0.01%  21.6   15s
*67165  1960              61     -18.7619598  -18.76356  0.01%  21.5   15s
*67166  1960              62     -18.7619600  -18.76356  0.01%  21.5   15s
*67173  1958              61     -18.7619604  -18.76356  0.01%  21.5   15s

Explored 69178 nodes (1458652 simplex iterations) in 15.15 seconds
Thread count was 32 (of 72 available processors)

Solution count 10: -18.762 -18.762 -18.762 ... -18.7618

Optimal solution found (tolerance 1.00e-04)
Best objective -1.876195838354e+01, best bound -1.876323921951e+01, gap 0.0068%

User-callback calls 139728, time in user-callback 0.03 sec



objective value: -18.76195838353838
objective bound: -18.763239219512116
x_opt: [1.0, 0.914861687175442, 0.0, 0.3473588961440789, 0.0, 0.0, 1.0, 0.0, 0.0, 0.0, 1.0, 0.0, 1.0, 1.0, 0.48183740728037155, 1.0, 0.0, 1.0, 0.0, 0.0, 0.0, 0.10276851320415682, 0.0, 0.5243017112626168, 0.0, 0.6409069983814728, 0.0, 1.0, 0.0, 0.0, 1.0, 1.0, 0.0, 0.6032137593113126, 1.0, 0.9402076627549758, 0.0, 1.0, 0.0, 1.0, 1.0, 0.0, 0.8771937591736307, 0.0003176128466841154, 0.00012328138565287957, 0.053717271627018975, 0.3447691024209374, 0.5145835008328771, 0.018161575614026638, 1.010055560753471e-14]
GUROBI solution time: 15.145591020584106




